NAME : cgl_107.5515.tour
COMMENT : Length = 5515
COMMENT : Found by LKH-3 [Keld Helsgaun] Fri Nov  8 17:38:22 2024
TYPE : TOUR
DIMENSION : 108
TOUR_SECTION
26
15
14
23
13
100
99
12
98
11
10
9
97
8
7
6
2
1
5
4
3
74
94
73
96
72
95
90
75
93
91
92
83
80
86
82
88
85
78
89
81
76
87
84
79
77
59
71
63
65
70
60
69
67
57
68
66
61
62
64
58
54
55
56
53
52
108
105
106
107
102
103
104
101
16
38
35
37
36
33
39
34
41
42
44
32
40
43
45
46
47
48
49
22
31
20
21
50
19
30
51
28
29
27
24
18
17
25
-1
EOF
